
num_bands = 56
num_wann = 32
dis_win_min   = -5d0
dis_win_max   = 6.7d0
dis_froz_min  =  -5d0      # energy window
dis_froz_max  =  5.7d0
dis_num_iter  =  100
num_iter      =  0
num_print_cycles = 20
spinors = .true.

# projections
begin projections
Fe : d
Ga : p
end projections


begin unit_cell_cart
        4.1061692238         0.0000000000         0.0000000000
        0.0000000000         4.1061692238         0.0000000000
        0.0000000000         0.0000000000         2.9035000801
end unit_cell_cart

begin atoms_frac
 Fe   0.000000000         0.000000000         0.000000000
 Fe   0.500000000         0.000000000         0.500000000
 Fe   0.000000000         0.500000000         0.500000000
 Ga   0.500000000         0.500000000         0.000000000
end atoms_frac



#Bandstructure plot
#restart         =  plot
bands_plot      =  .true.

### the next line is used for wannier90-1.2, please use write_hr = .true. instead for wannier90-3.1 
hr_plot = .true.
begin kpoint_path
G  0.0000000000   0.0000000000   0.0000000000      X   0.5000000000   0.0000000000   0.5000000000     
X  0.5000000000   0.0000000000   0.5000000000      W   0.5000000000   0.2500000000   0.7500000000     
W  0.5000000000   0.2500000000   0.7500000000      K   0.3750000000   0.3750000000   0.7500000000              
K  0.3750000000   0.3750000000   0.7500000000      G   0.0000000000   0.0000000000   0.0000000000             
G  0.0000000000   0.0000000000   0.0000000000      L   0.5000000000   0.5000000000   0.5000000000                  
L  0.5000000000   0.5000000000   0.5000000000      U   0.6250000000   0.2500000000   0.6250000000                 
U  0.6250000000   0.2500000000   0.6250000000      W   0.5000000000   0.2500000000   0.7500000000                  
W  0.5000000000   0.2500000000   0.7500000000      L   0.5000000000   0.5000000000   0.5000000000
L   0.5000000000   0.5000000000   0.5000000000     K   0.3750000000   0.3750000000   0.7500000000    
end kpoint_path
bands_num_points 101
bands_plot_format gnuplot xmgrace
